c nIsolatedPIs 28
c maxPI 4
p cnf 10 19
c gate 5 1 3 0
1 -5 0
3 -5 0
-1 -3 5 0
c gate 6 2 4 0
2 -6 0
4 -6 0
-2 -4 6 0
c gate 7 5 6 0
5 -7 0
6 -7 0
-5 -6 7 0
c gate 8 -2 -4 0
-2 -8 0
-4 -8 0
2 4 8 0
c gate 9 5 8 0
5 -9 0
8 -9 0
-5 -8 9 0
c gate 10 -7 -9 0
-7 -10 0
-9 -10 0
7 9 10 0
c PO
-10 0
